\ Model gr4x6_variant
\ LP format - for model browsing. Use MPS format to capture full model detail.
Minimize
  15.53 X[0] + 18.69 X[1] + 16.36 X[2] + 17.03 X[3] + 17.38 X[4]
   + 16.43 X[5] + 15.21 X[6] + 13.94 X[7] + 16.81 X[8] + 12.88 X[9]
   + 12.92 X[10] + 10.43 X[11] + 18.76 X[12] + 6.68 X[13] + 17.43 X[14]
   + 18.54 X[15] + 8.03 X[16] + 13.05 X[17] + 7.47 X[18] + 17.82 X[19]
   + 11.63 X[20] + 15.2 X[21] + 15.75 X[22] + 12.33 X[23] + 18.48 X[24]
   + 11.68 X[25] + 5.83 X[26] + 6.98 X[27] + 11.23 X[28] + 13.46 X[29]
   + 13.38 X[30] + 15.09 X[31] + 9.62 X[32] + 5.33 X[33] + 8.82 X[34]
   + 5.05 X[35] + 8.27 X[36] + 6.1 X[37] + 11.36 X[38] + 15.51 X[39]
   + 13.12 X[40] + 5.9 X[41] + 18.41 X[42] + 19.79 X[43] + 12.08 X[44]
   + 9.31 X[45] + 7.7 X[46] + 7.03 X[47] + 14.62 X[48] + 15.94 X[49]
   + 19.46 X[50] + 10.62 X[51] + 18.37 X[52] + 11.73 X[53] + 18.76 X[54]
   + 10.66 X[55] + 6.2 X[56] + 19.46 X[57] + 18.12 X[58] + 6.99 X[59]
   + 17.9 X[60] + 6.78 X[61] + 19.89 X[62] + 10.9 X[63] + 6.91 X[64]
   + 19.68 X[65] + 17.52 X[66] + 16.34 X[67] + 19.68 X[68] + 11.95 X[69]
   + 15.79 X[70] + 11.36 X[71] + 10.69 X[72] + 8.44 X[73] + 11.91 X[74]
   + 7.33 X[75] + 7.83 X[76] + 18.13 X[77] + 16.48 X[78] + 5.48 X[79]
   + 14.9 X[80] + 14.22 X[81] + 19.04 X[82] + 18.34 X[83] + 8.61 X[84]
   + 6.01 X[85] + 13.91 X[86] + 11.7 X[87] + 15.08 X[88] + 18.08 X[89]
   + 8.67 X[90] + 5.66 X[91] + 11.58 X[92] + 13.1 X[93] + 16.32 X[94]
   + 16.64 X[95] + 7.1 X[96] + 19.9 X[97] + 8.51 X[98] + 18.75 X[99]
   + 13.64 X[100] + 13.66 X[101] + 16.59 X[102] + 17.28 X[103]
   + 8.55 X[104] + 18.14 X[105] + 19.79 X[106] + 12.82 X[107] + 11.2 X[108]
   + 9.13 X[109] + 13.35 X[110] + 13.88 X[111] + 16.03 X[112] + 7.63 X[113]
   + 15.18 X[114] + 13.34 X[115] + 5.7 X[116] + 10.17 X[117] + 14.65 X[118]
   + 10.72 X[119] + 12.87 X[120] + 15.44 X[121] + 11.12 X[122] + 9.5 X[123]
   + 7.76 X[124] + 13.07 X[125] + 8.61 X[126] + 8.38 X[127] + 17.86 X[128]
   + 7.17 X[129] + 11.95 X[130] + 5.86 X[131] + 11.19 X[132] + 11.25 X[133]
   + 12.95 X[134] + 10.83 X[135] + 8.82 X[136] + 9.95 X[137] + 6.19 X[138]
   + 11.75 X[139] + 10.57 X[140] + 13.03 X[141] + 17.44 X[142]
   + 5.77 X[143] + 10.66 X[144] + 14.07 X[145] + 5.59 X[146] + 6.09 X[147]
   + 17.07 X[148] + 13.81 X[149] + 3685.8 Y[0] + 1868.07 Y[1]
   + 1835.56 Y[2] + 4628.13 Y[3] + 2212.75 Y[4] + 4635.98 Y[5]
   + 1847.23 Y[6] + 1760.09 Y[7] + 3965.9 Y[8] + 3987.52 Y[9]
   + 4017.32 Y[10] + 4657.77 Y[11] + 3782.51 Y[12] + 3815.07 Y[13]
   + 2586.53 Y[14] + 1957.32 Y[15] + 2286.46 Y[16] + 2132.24 Y[17]
   + 2865 Y[18] + 3594.89 Y[19] + 2233.69 Y[20] + 2438.58 Y[21]
   + 4531.25 Y[22] + 2864.02 Y[23] + 4211.27 Y[24] + 3889.65 Y[25]
   + 4046.52 Y[26] + 2280.93 Y[27] + 1812.51 Y[28] + 2251.69 Y[29]
   + 1182.86 Y[30] + 4456.34 Y[31] + 3965.01 Y[32] + 1064.88 Y[33]
   + 3213.25 Y[34] + 3336.13 Y[35] + 3880.05 Y[36] + 2180.77 Y[37]
   + 1784.77 Y[38] + 1920.07 Y[39] + 3279.16 Y[40] + 1982.92 Y[41]
   + 3202.57 Y[42] + 4773.86 Y[43] + 2350.26 Y[44] + 4053.44 Y[45]
   + 2954.48 Y[46] + 3894.23 Y[47] + 3958.38 Y[48] + 2843.32 Y[49]
   + 3931.09 Y[50] + 2408.7 Y[51] + 1559.83 Y[52] + 3186.19 Y[53]
   + 1736.19 Y[54] + 4557.46 Y[55] + 4961.29 Y[56] + 4828.95 Y[57]
   + 3095.78 Y[58] + 4356.27 Y[59] + 1297.32 Y[60] + 4271.98 Y[61]
   + 1194.06 Y[62] + 1025.54 Y[63] + 1549.97 Y[64] + 3522.81 Y[65]
   + 1271.87 Y[66] + 1604.12 Y[67] + 1874.88 Y[68] + 2824.04 Y[69]
   + 1241.8 Y[70] + 3550.91 Y[71] + 4735.61 Y[72] + 4651.01 Y[73]
   + 3637.14 Y[74] + 1062.93 Y[75] + 3128.85 Y[76] + 2645.35 Y[77]
   + 1066.9 Y[78] + 3888.77 Y[79] + 3142.95 Y[80] + 2146.75 Y[81]
   + 3008.86 Y[82] + 3791.44 Y[83] + 2722.29 Y[84] + 4758.85 Y[85]
   + 1717.07 Y[86] + 4672.2 Y[87] + 3097.54 Y[88] + 1963.88 Y[89]
   + 3479.12 Y[90] + 2009.67 Y[91] + 2417.76 Y[92] + 4179.75 Y[93]
   + 1316.08 Y[94] + 4837.19 Y[95] + 2835.99 Y[96] + 1972.83 Y[97]
   + 3788.95 Y[98] + 2199.9 Y[99] + 4312.25 Y[100] + 1322.47 Y[101]
   + 4966.7 Y[102] + 3599.58 Y[103] + 1126.74 Y[104] + 2621.11 Y[105]
   + 2508.68 Y[106] + 2904.02 Y[107] + 3546.99 Y[108] + 3811.38 Y[109]
   + 1330.74 Y[110] + 4381.32 Y[111] + 3579.63 Y[112] + 2325.08 Y[113]
   + 4909.32 Y[114] + 4895.36 Y[115] + 4579.16 Y[116] + 4676.61 Y[117]
   + 1919.07 Y[118] + 4605.09 Y[119] + 3769.15 Y[120] + 3267.14 Y[121]
   + 2084.38 Y[122] + 4696.64 Y[123] + 3737.71 Y[124] + 2121.49 Y[125]
   + 3172.12 Y[126] + 3632.44 Y[127] + 1717.42 Y[128] + 4401.71 Y[129]
   + 1062.63 Y[130] + 1828.63 Y[131] + 1576.77 Y[132] + 4282.76 Y[133]
   + 4283.61 Y[134] + 4715.5 Y[135] + 2197.11 Y[136] + 3255.83 Y[137]
   + 3266.78 Y[138] + 4397.77 Y[139] + 3708.14 Y[140] + 3162.25 Y[141]
   + 2535.38 Y[142] + 3958.98 Y[143] + 4161.99 Y[144] + 3757.24 Y[145]
   + 1313.71 Y[146] + 3981.83 Y[147] + 2383.44 Y[148] + 1390.74 Y[149]
Subject To
 A0: X[0] + X[1] + X[2] + X[3] + X[4] + X[5] + X[6] + X[7] + X[8] + X[9]
   + X[10] + X[11] + X[12] + X[13] + X[14] = 117.01
 A1: X[15] + X[16] + X[17] + X[18] + X[19] + X[20] + X[21] + X[22] + X[23]
   + X[24] + X[25] + X[26] + X[27] + X[28] + X[29] = 90.05
 A2: X[30] + X[31] + X[32] + X[33] + X[34] + X[35] + X[36] + X[37] + X[38]
   + X[39] + X[40] + X[41] + X[42] + X[43] + X[44] = 99.44
 A3: X[45] + X[46] + X[47] + X[48] + X[49] + X[50] + X[51] + X[52] + X[53]
   + X[54] + X[55] + X[56] + X[57] + X[58] + X[59] = 137.37
 A4: X[60] + X[61] + X[62] + X[63] + X[64] + X[65] + X[66] + X[67] + X[68]
   + X[69] + X[70] + X[71] + X[72] + X[73] + X[74] = 135.93
 A5: X[75] + X[76] + X[77] + X[78] + X[79] + X[80] + X[81] + X[82] + X[83]
   + X[84] + X[85] + X[86] + X[87] + X[88] + X[89] = 89.23
 A6: X[90] + X[91] + X[92] + X[93] + X[94] + X[95] + X[96] + X[97] + X[98]
   + X[99] + X[100] + X[101] + X[102] + X[103] + X[104] = 103.93
 A7: X[105] + X[106] + X[107] + X[108] + X[109] + X[110] + X[111] + X[112]
   + X[113] + X[114] + X[115] + X[116] + X[117] + X[118] + X[119] = 85.45
 A8: X[120] + X[121] + X[122] + X[123] + X[124] + X[125] + X[126] + X[127]
   + X[128] + X[129] + X[130] + X[131] + X[132] + X[133] + X[134] = 150.17
 A9: X[135] + X[136] + X[137] + X[138] + X[139] + X[140] + X[141] + X[142]
   + X[143] + X[144] + X[145] + X[146] + X[147] + X[148] + X[149] = 119.81
 B0: X[0] + X[15] + X[30] + X[45] + X[60] + X[75] + X[90] + X[105] + X[120]
   + X[135] - 163.89 Z[0] <= 0
 B1: X[1] + X[16] + X[31] + X[46] + X[61] + X[76] + X[91] + X[106] + X[121]
   + X[136] - 374.43 Z[1] <= 0
 B2: X[2] + X[17] + X[32] + X[47] + X[62] + X[77] + X[92] + X[107] + X[122]
   + X[137] - 469.24 Z[2] <= 0
 B3: X[3] + X[18] + X[33] + X[48] + X[63] + X[78] + X[93] + X[108] + X[123]
   + X[138] - 455.12 Z[3] <= 0
 B4: X[4] + X[19] + X[34] + X[49] + X[64] + X[79] + X[94] + X[109] + X[124]
   + X[139] - 407.94 Z[4] <= 0
 B5: X[5] + X[20] + X[35] + X[50] + X[65] + X[80] + X[95] + X[110] + X[125]
   + X[140] - 376.12 Z[5] <= 0
 B6: X[6] + X[21] + X[36] + X[51] + X[66] + X[81] + X[96] + X[111] + X[126]
   + X[141] - 355.48 Z[6] <= 0
 B7: X[7] + X[22] + X[37] + X[52] + X[67] + X[82] + X[97] + X[112] + X[127]
   + X[142] - 476.25 Z[7] <= 0
 B8: X[8] + X[23] + X[38] + X[53] + X[68] + X[83] + X[98] + X[113] + X[128]
   + X[143] - 247.02 Z[8] <= 0
 B9: X[9] + X[24] + X[39] + X[54] + X[69] + X[84] + X[99] + X[114] + X[129]
   + X[144] - 188.34 Z[9] <= 0
 B10: X[10] + X[25] + X[40] + X[55] + X[70] + X[85] + X[100] + X[115]
   + X[130] + X[145] - 482.94 Z[10] <= 0
 B11: X[11] + X[26] + X[41] + X[56] + X[71] + X[86] + X[101] + X[116]
   + X[131] + X[146] - 291.27 Z[11] <= 0
 B12: X[12] + X[27] + X[42] + X[57] + X[72] + X[87] + X[102] + X[117]
   + X[132] + X[147] - 281.99 Z[12] <= 0
 B13: X[13] + X[28] + X[43] + X[58] + X[73] + X[88] + X[103] + X[118]
   + X[133] + X[148] - 495.54 Z[13] <= 0
 B14: X[14] + X[29] + X[44] + X[59] + X[74] + X[89] + X[104] + X[119]
   + X[134] + X[149] - 249.45 Z[14] <= 0
 G0: X[0] - 19.29 Y[0] <= 0
 G1: X[1] - 13.04 Y[1] <= 0
 G2: X[2] - 34.21 Y[2] <= 0
 G3: X[3] - 34.55 Y[3] <= 0
 G4: X[4] - 33.82 Y[4] <= 0
 G5: X[5] - 48.76 Y[5] <= 0
 G6: X[6] - 23.06 Y[6] <= 0
 G7: X[7] - 35.36 Y[7] <= 0
 G8: X[8] - 41.34 Y[8] <= 0
 G9: X[9] - 28.02 Y[9] <= 0
 G10: X[10] - 19.13 Y[10] <= 0
 G11: X[11] - 32.12 Y[11] <= 0
 G12: X[12] - 25.02 Y[12] <= 0
 G13: X[13] - 17.43 Y[13] <= 0
 G14: X[14] - 33.44 Y[14] <= 0
 G15: X[15] - 25.2 Y[15] <= 0
 G16: X[16] - 40.89 Y[16] <= 0
 G17: X[17] - 21.82 Y[17] <= 0
 G18: X[18] - 19.86 Y[18] <= 0
 G19: X[19] - 12.94 Y[19] <= 0
 G20: X[20] - 20.72 Y[20] <= 0
 G21: X[21] - 25.2 Y[21] <= 0
 G22: X[22] - 41.36 Y[22] <= 0
 G23: X[23] - 16.17 Y[23] <= 0
 G24: X[24] - 25.58 Y[24] <= 0
 G25: X[25] - 24.43 Y[25] <= 0
 G26: X[26] - 13.66 Y[26] <= 0
 G27: X[27] - 47.72 Y[27] <= 0
 G28: X[28] - 27.79 Y[28] <= 0
 G29: X[29] - 40.45 Y[29] <= 0
 G30: X[30] - 14.09 Y[30] <= 0
 G31: X[31] - 13.49 Y[31] <= 0
 G32: X[32] - 27.24 Y[32] <= 0
 G33: X[33] - 32.28 Y[33] <= 0
 G34: X[34] - 30.5 Y[34] <= 0
 G35: X[35] - 14.13 Y[35] <= 0
 G36: X[36] - 13.58 Y[36] <= 0
 G37: X[37] - 32.17 Y[37] <= 0
 G38: X[38] - 33.88 Y[38] <= 0
 G39: X[39] - 41.38 Y[39] <= 0
 G40: X[40] - 44.55 Y[40] <= 0
 G41: X[41] - 10.49 Y[41] <= 0
 G42: X[42] - 26.55 Y[42] <= 0
 G43: X[43] - 41.17 Y[43] <= 0
 G44: X[44] - 38.99 Y[44] <= 0
 G45: X[45] - 32.38 Y[45] <= 0
 G46: X[46] - 49.71 Y[46] <= 0
 G47: X[47] - 19.71 Y[47] <= 0
 G48: X[48] - 30.84 Y[48] <= 0
 G49: X[49] - 37.41 Y[49] <= 0
 G50: X[50] - 16.78 Y[50] <= 0
 G51: X[51] - 20.76 Y[51] <= 0
 G52: X[52] - 20.74 Y[52] <= 0
 G53: X[53] - 15.84 Y[53] <= 0
 G54: X[54] - 16.69 Y[54] <= 0
 G55: X[55] - 21.04 Y[55] <= 0
 G56: X[56] - 21.99 Y[56] <= 0
 G57: X[57] - 41.31 Y[57] <= 0
 G58: X[58] - 24.44 Y[58] <= 0
 G59: X[59] - 47.77 Y[59] <= 0
 G60: X[60] - 38.84 Y[60] <= 0
 G61: X[61] - 29.83 Y[61] <= 0
 G62: X[62] - 34.67 Y[62] <= 0
 G63: X[63] - 28.31 Y[63] <= 0
 G64: X[64] - 15.42 Y[64] <= 0
 G65: X[65] - 10.27 Y[65] <= 0
 G66: X[66] - 25.83 Y[66] <= 0
 G67: X[67] - 43.66 Y[67] <= 0
 G68: X[68] - 25.2 Y[68] <= 0
 G69: X[69] - 44.49 Y[69] <= 0
 G70: X[70] - 27.61 Y[70] <= 0
 G71: X[71] - 27.22 Y[71] <= 0
 G72: X[72] - 42.94 Y[72] <= 0
 G73: X[73] - 36.04 Y[73] <= 0
 G74: X[74] - 33.78 Y[74] <= 0
 G75: X[75] - 22.02 Y[75] <= 0
 G76: X[76] - 34.13 Y[76] <= 0
 G77: X[77] - 37.81 Y[77] <= 0
 G78: X[78] - 29.16 Y[78] <= 0
 G79: X[79] - 17.11 Y[79] <= 0
 G80: X[80] - 25.93 Y[80] <= 0
 G81: X[81] - 22.77 Y[81] <= 0
 G82: X[82] - 39.39 Y[82] <= 0
 G83: X[83] - 35.32 Y[83] <= 0
 G84: X[84] - 48.71 Y[84] <= 0
 G85: X[85] - 41.28 Y[85] <= 0
 G86: X[86] - 23.04 Y[86] <= 0
 G87: X[87] - 21.21 Y[87] <= 0
 G88: X[88] - 41.43 Y[88] <= 0
 G89: X[89] - 24.6 Y[89] <= 0
 G90: X[90] - 47.28 Y[90] <= 0
 G91: X[91] - 17.99 Y[91] <= 0
 G92: X[92] - 49.89 Y[92] <= 0
 G93: X[93] - 17.2 Y[93] <= 0
 G94: X[94] - 40.7 Y[94] <= 0
 G95: X[95] - 11.08 Y[95] <= 0
 G96: X[96] - 39.09 Y[96] <= 0
 G97: X[97] - 47.72 Y[97] <= 0
 G98: X[98] - 18.39 Y[98] <= 0
 G99: X[99] - 41.91 Y[99] <= 0
 G100: X[100] - 43.25 Y[100] <= 0
 G101: X[101] - 12.77 Y[101] <= 0
 G102: X[102] - 43.91 Y[102] <= 0
 G103: X[103] - 41.8 Y[103] <= 0
 G104: X[104] - 36.92 Y[104] <= 0
 G105: X[105] - 15.57 Y[105] <= 0
 G106: X[106] - 22.11 Y[106] <= 0
 G107: X[107] - 20.11 Y[107] <= 0
 G108: X[108] - 16.17 Y[108] <= 0
 G109: X[109] - 26.93 Y[109] <= 0
 G110: X[110] - 25.08 Y[110] <= 0
 G111: X[111] - 27.96 Y[111] <= 0
 G112: X[112] - 33.92 Y[112] <= 0
 G113: X[113] - 33.29 Y[113] <= 0
 G114: X[114] - 31.37 Y[114] <= 0
 G115: X[115] - 46.94 Y[115] <= 0
 G116: X[116] - 44.79 Y[116] <= 0
 G117: X[117] - 26.73 Y[117] <= 0
 G118: X[118] - 11.47 Y[118] <= 0
 G119: X[119] - 48.74 Y[119] <= 0
 G120: X[120] - 38.07 Y[120] <= 0
 G121: X[121] - 42.49 Y[121] <= 0
 G122: X[122] - 33.75 Y[122] <= 0
 G123: X[123] - 46.58 Y[123] <= 0
 G124: X[124] - 14.37 Y[124] <= 0
 G125: X[125] - 19.93 Y[125] <= 0
 G126: X[126] - 36.59 Y[126] <= 0
 G127: X[127] - 16.65 Y[127] <= 0
 G128: X[128] - 34.51 Y[128] <= 0
 G129: X[129] - 32.53 Y[129] <= 0
 G130: X[130] - 35.8 Y[130] <= 0
 G131: X[131] - 35.87 Y[131] <= 0
 G132: X[132] - 48.67 Y[132] <= 0
 G133: X[133] - 23.26 Y[133] <= 0
 G134: X[134] - 41.85 Y[134] <= 0
 G135: X[135] - 14.24 Y[135] <= 0
 G136: X[136] - 13.94 Y[136] <= 0
 G137: X[137] - 18.88 Y[137] <= 0
 G138: X[138] - 39.87 Y[138] <= 0
 G139: X[139] - 32.32 Y[139] <= 0
 G140: X[140] - 37.51 Y[140] <= 0
 G141: X[141] - 18.84 Y[141] <= 0
 G142: X[142] - 24.96 Y[142] <= 0
 G143: X[143] - 28.52 Y[143] <= 0
 G144: X[144] - 37.18 Y[144] <= 0
 G145: X[145] - 37.62 Y[145] <= 0
 G146: X[146] - 16.03 Y[146] <= 0
 G147: X[147] - 49.91 Y[147] <= 0
 G148: X[148] - 29.31 Y[148] <= 0
 G149: X[149] - 21.82 Y[149] <= 0
 H0_0: Y[0] - Z[0] <= 0
 H1_0: Y[15] - Z[0] <= 0
 H2_0: Y[30] - Z[0] <= 0
 H3_0: Y[45] - Z[0] <= 0
 H4_0: Y[60] - Z[0] <= 0
 H5_0: Y[75] - Z[0] <= 0
 H6_0: Y[90] - Z[0] <= 0
 H7_0: Y[105] - Z[0] <= 0
 H8_0: Y[120] - Z[0] <= 0
 H9_0: Y[135] - Z[0] <= 0
 H0_1: Y[1] - Z[1] <= 0
 H1_1: Y[16] - Z[1] <= 0
 H2_1: Y[31] - Z[1] <= 0
 H3_1: Y[46] - Z[1] <= 0
 H4_1: Y[61] - Z[1] <= 0
 H5_1: Y[76] - Z[1] <= 0
 H6_1: Y[91] - Z[1] <= 0
 H7_1: Y[106] - Z[1] <= 0
 H8_1: Y[121] - Z[1] <= 0
 H9_1: Y[136] - Z[1] <= 0
 H0_2: Y[2] - Z[2] <= 0
 H1_2: Y[17] - Z[2] <= 0
 H2_2: Y[32] - Z[2] <= 0
 H3_2: Y[47] - Z[2] <= 0
 H4_2: Y[62] - Z[2] <= 0
 H5_2: Y[77] - Z[2] <= 0
 H6_2: Y[92] - Z[2] <= 0
 H7_2: Y[107] - Z[2] <= 0
 H8_2: Y[122] - Z[2] <= 0
 H9_2: Y[137] - Z[2] <= 0
 H0_3: Y[3] - Z[3] <= 0
 H1_3: Y[18] - Z[3] <= 0
 H2_3: Y[33] - Z[3] <= 0
 H3_3: Y[48] - Z[3] <= 0
 H4_3: Y[63] - Z[3] <= 0
 H5_3: Y[78] - Z[3] <= 0
 H6_3: Y[93] - Z[3] <= 0
 H7_3: Y[108] - Z[3] <= 0
 H8_3: Y[123] - Z[3] <= 0
 H9_3: Y[138] - Z[3] <= 0
 H0_4: Y[4] - Z[4] <= 0
 H1_4: Y[19] - Z[4] <= 0
 H2_4: Y[34] - Z[4] <= 0
 H3_4: Y[49] - Z[4] <= 0
 H4_4: Y[64] - Z[4] <= 0
 H5_4: Y[79] - Z[4] <= 0
 H6_4: Y[94] - Z[4] <= 0
 H7_4: Y[109] - Z[4] <= 0
 H8_4: Y[124] - Z[4] <= 0
 H9_4: Y[139] - Z[4] <= 0
 H0_5: Y[5] - Z[5] <= 0
 H1_5: Y[20] - Z[5] <= 0
 H2_5: Y[35] - Z[5] <= 0
 H3_5: Y[50] - Z[5] <= 0
 H4_5: Y[65] - Z[5] <= 0
 H5_5: Y[80] - Z[5] <= 0
 H6_5: Y[95] - Z[5] <= 0
 H7_5: Y[110] - Z[5] <= 0
 H8_5: Y[125] - Z[5] <= 0
 H9_5: Y[140] - Z[5] <= 0
 H0_6: Y[6] - Z[6] <= 0
 H1_6: Y[21] - Z[6] <= 0
 H2_6: Y[36] - Z[6] <= 0
 H3_6: Y[51] - Z[6] <= 0
 H4_6: Y[66] - Z[6] <= 0
 H5_6: Y[81] - Z[6] <= 0
 H6_6: Y[96] - Z[6] <= 0
 H7_6: Y[111] - Z[6] <= 0
 H8_6: Y[126] - Z[6] <= 0
 H9_6: Y[141] - Z[6] <= 0
 H0_7: Y[7] - Z[7] <= 0
 H1_7: Y[22] - Z[7] <= 0
 H2_7: Y[37] - Z[7] <= 0
 H3_7: Y[52] - Z[7] <= 0
 H4_7: Y[67] - Z[7] <= 0
 H5_7: Y[82] - Z[7] <= 0
 H6_7: Y[97] - Z[7] <= 0
 H7_7: Y[112] - Z[7] <= 0
 H8_7: Y[127] - Z[7] <= 0
 H9_7: Y[142] - Z[7] <= 0
 H0_8: Y[8] - Z[8] <= 0
 H1_8: Y[23] - Z[8] <= 0
 H2_8: Y[38] - Z[8] <= 0
 H3_8: Y[53] - Z[8] <= 0
 H4_8: Y[68] - Z[8] <= 0
 H5_8: Y[83] - Z[8] <= 0
 H6_8: Y[98] - Z[8] <= 0
 H7_8: Y[113] - Z[8] <= 0
 H8_8: Y[128] - Z[8] <= 0
 H9_8: Y[143] - Z[8] <= 0
 H0_9: Y[9] - Z[9] <= 0
 H1_9: Y[24] - Z[9] <= 0
 H2_9: Y[39] - Z[9] <= 0
 H3_9: Y[54] - Z[9] <= 0
 H4_9: Y[69] - Z[9] <= 0
 H5_9: Y[84] - Z[9] <= 0
 H6_9: Y[99] - Z[9] <= 0
 H7_9: Y[114] - Z[9] <= 0
 H8_9: Y[129] - Z[9] <= 0
 H9_9: Y[144] - Z[9] <= 0
 H0_10: Y[10] - Z[10] <= 0
 H1_10: Y[25] - Z[10] <= 0
 H2_10: Y[40] - Z[10] <= 0
 H3_10: Y[55] - Z[10] <= 0
 H4_10: Y[70] - Z[10] <= 0
 H5_10: Y[85] - Z[10] <= 0
 H6_10: Y[100] - Z[10] <= 0
 H7_10: Y[115] - Z[10] <= 0
 H8_10: Y[130] - Z[10] <= 0
 H9_10: Y[145] - Z[10] <= 0
 H0_11: Y[11] - Z[11] <= 0
 H1_11: Y[26] - Z[11] <= 0
 H2_11: Y[41] - Z[11] <= 0
 H3_11: Y[56] - Z[11] <= 0
 H4_11: Y[71] - Z[11] <= 0
 H5_11: Y[86] - Z[11] <= 0
 H6_11: Y[101] - Z[11] <= 0
 H7_11: Y[116] - Z[11] <= 0
 H8_11: Y[131] - Z[11] <= 0
 H9_11: Y[146] - Z[11] <= 0
 H0_12: Y[12] - Z[12] <= 0
 H1_12: Y[27] - Z[12] <= 0
 H2_12: Y[42] - Z[12] <= 0
 H3_12: Y[57] - Z[12] <= 0
 H4_12: Y[72] - Z[12] <= 0
 H5_12: Y[87] - Z[12] <= 0
 H6_12: Y[102] - Z[12] <= 0
 H7_12: Y[117] - Z[12] <= 0
 H8_12: Y[132] - Z[12] <= 0
 H9_12: Y[147] - Z[12] <= 0
 H0_13: Y[13] - Z[13] <= 0
 H1_13: Y[28] - Z[13] <= 0
 H2_13: Y[43] - Z[13] <= 0
 H3_13: Y[58] - Z[13] <= 0
 H4_13: Y[73] - Z[13] <= 0
 H5_13: Y[88] - Z[13] <= 0
 H6_13: Y[103] - Z[13] <= 0
 H7_13: Y[118] - Z[13] <= 0
 H8_13: Y[133] - Z[13] <= 0
 H9_13: Y[148] - Z[13] <= 0
 H0_14: Y[14] - Z[14] <= 0
 H1_14: Y[29] - Z[14] <= 0
 H2_14: Y[44] - Z[14] <= 0
 H3_14: Y[59] - Z[14] <= 0
 H4_14: Y[74] - Z[14] <= 0
 H5_14: Y[89] - Z[14] <= 0
 H6_14: Y[104] - Z[14] <= 0
 H7_14: Y[119] - Z[14] <= 0
 H8_14: Y[134] - Z[14] <= 0
 H9_14: Y[149] - Z[14] <= 0
 C1: Z[0] + Z[1] + Z[2] + Z[3] + Z[4] + Z[5] + Z[6] + Z[7] + Z[8] + Z[9]
   + Z[10] + Z[11] + Z[12] + Z[13] + Z[14] <= 6
Bounds
 X[0] <= 19.29
 X[1] <= 13.04
 X[2] <= 34.21
 X[3] <= 34.55
 X[4] <= 33.82
 X[5] <= 48.76
 X[6] <= 23.06
 X[7] <= 35.36
 X[8] <= 41.34
 X[9] <= 28.02
 X[10] <= 19.13
 X[11] <= 32.12
 X[12] <= 25.02
 X[13] <= 17.43
 X[14] <= 33.44
 X[15] <= 25.2
 X[16] <= 40.89
 X[17] <= 21.82
 X[18] <= 19.86
 X[19] <= 12.94
 X[20] <= 20.72
 X[21] <= 25.2
 X[22] <= 41.36
 X[23] <= 16.17
 X[24] <= 25.58
 X[25] <= 24.43
 X[26] <= 13.66
 X[27] <= 47.72
 X[28] <= 27.79
 X[29] <= 40.45
 X[30] <= 14.09
 X[31] <= 13.49
 X[32] <= 27.24
 X[33] <= 32.28
 X[34] <= 30.5
 X[35] <= 14.13
 X[36] <= 13.58
 X[37] <= 32.17
 X[38] <= 33.88
 X[39] <= 41.38
 X[40] <= 44.55
 X[41] <= 10.49
 X[42] <= 26.55
 X[43] <= 41.17
 X[44] <= 38.99
 X[45] <= 32.38
 X[46] <= 49.71
 X[47] <= 19.71
 X[48] <= 30.84
 X[49] <= 37.41
 X[50] <= 16.78
 X[51] <= 20.76
 X[52] <= 20.74
 X[53] <= 15.84
 X[54] <= 16.69
 X[55] <= 21.04
 X[56] <= 21.99
 X[57] <= 41.31
 X[58] <= 24.44
 X[59] <= 47.77
 X[60] <= 38.84
 X[61] <= 29.83
 X[62] <= 34.67
 X[63] <= 28.31
 X[64] <= 15.42
 X[65] <= 10.27
 X[66] <= 25.83
 X[67] <= 43.66
 X[68] <= 25.2
 X[69] <= 44.49
 X[70] <= 27.61
 X[71] <= 27.22
 X[72] <= 42.94
 X[73] <= 36.04
 X[74] <= 33.78
 X[75] <= 22.02
 X[76] <= 34.13
 X[77] <= 37.81
 X[78] <= 29.16
 X[79] <= 17.11
 X[80] <= 25.93
 X[81] <= 22.77
 X[82] <= 39.39
 X[83] <= 35.32
 X[84] <= 48.71
 X[85] <= 41.28
 X[86] <= 23.04
 X[87] <= 21.21
 X[88] <= 41.43
 X[89] <= 24.6
 X[90] <= 47.28
 X[91] <= 17.99
 X[92] <= 49.89
 X[93] <= 17.2
 X[94] <= 40.7
 X[95] <= 11.08
 X[96] <= 39.09
 X[97] <= 47.72
 X[98] <= 18.39
 X[99] <= 41.91
 X[100] <= 43.25
 X[101] <= 12.77
 X[102] <= 43.91
 X[103] <= 41.8
 X[104] <= 36.92
 X[105] <= 15.57
 X[106] <= 22.11
 X[107] <= 20.11
 X[108] <= 16.17
 X[109] <= 26.93
 X[110] <= 25.08
 X[111] <= 27.96
 X[112] <= 33.92
 X[113] <= 33.29
 X[114] <= 31.37
 X[115] <= 46.94
 X[116] <= 44.79
 X[117] <= 26.73
 X[118] <= 11.47
 X[119] <= 48.74
 X[120] <= 38.07
 X[121] <= 42.49
 X[122] <= 33.75
 X[123] <= 46.58
 X[124] <= 14.37
 X[125] <= 19.93
 X[126] <= 36.59
 X[127] <= 16.65
 X[128] <= 34.51
 X[129] <= 32.53
 X[130] <= 35.8
 X[131] <= 35.87
 X[132] <= 48.67
 X[133] <= 23.26
 X[134] <= 41.85
 X[135] <= 14.24
 X[136] <= 13.94
 X[137] <= 18.88
 X[138] <= 39.87
 X[139] <= 32.32
 X[140] <= 37.51
 X[141] <= 18.84
 X[142] <= 24.96
 X[143] <= 28.52
 X[144] <= 37.18
 X[145] <= 37.62
 X[146] <= 16.03
 X[147] <= 49.91
 X[148] <= 29.31
 X[149] <= 21.82
Binaries
 Y[0] Y[1] Y[2] Y[3] Y[4] Y[5] Y[6] Y[7] Y[8] Y[9] Y[10] Y[11] Y[12] Y[13]
 Y[14] Y[15] Y[16] Y[17] Y[18] Y[19] Y[20] Y[21] Y[22] Y[23] Y[24] Y[25]
 Y[26] Y[27] Y[28] Y[29] Y[30] Y[31] Y[32] Y[33] Y[34] Y[35] Y[36] Y[37]
 Y[38] Y[39] Y[40] Y[41] Y[42] Y[43] Y[44] Y[45] Y[46] Y[47] Y[48] Y[49]
 Y[50] Y[51] Y[52] Y[53] Y[54] Y[55] Y[56] Y[57] Y[58] Y[59] Y[60] Y[61]
 Y[62] Y[63] Y[64] Y[65] Y[66] Y[67] Y[68] Y[69] Y[70] Y[71] Y[72] Y[73]
 Y[74] Y[75] Y[76] Y[77] Y[78] Y[79] Y[80] Y[81] Y[82] Y[83] Y[84] Y[85]
 Y[86] Y[87] Y[88] Y[89] Y[90] Y[91] Y[92] Y[93] Y[94] Y[95] Y[96] Y[97]
 Y[98] Y[99] Y[100] Y[101] Y[102] Y[103] Y[104] Y[105] Y[106] Y[107] Y[108]
 Y[109] Y[110] Y[111] Y[112] Y[113] Y[114] Y[115] Y[116] Y[117] Y[118]
 Y[119] Y[120] Y[121] Y[122] Y[123] Y[124] Y[125] Y[126] Y[127] Y[128]
 Y[129] Y[130] Y[131] Y[132] Y[133] Y[134] Y[135] Y[136] Y[137] Y[138]
 Y[139] Y[140] Y[141] Y[142] Y[143] Y[144] Y[145] Y[146] Y[147] Y[148]
 Y[149] Z[0] Z[1] Z[2] Z[3] Z[4] Z[5] Z[6] Z[7] Z[8] Z[9] Z[10] Z[11] Z[12]
 Z[13] Z[14]
End
